NAME: random_points
TYPE: TSP
DIMENSION: 30
EDGE_WEIGHT_TYPE: EUC_2D
NODE_COORD_SECTION
1 553 239
2 531 491
3 722 598
4 760 482
5 45 387
6 512 755
7 681 98
8 211 146
9 177 471
10 155 985
11 681 644
12 62 319
13 822 675
14 784 717
15 379 915
16 870 772
17 822 53
18 10 810
19 338 809
20 958 7
21 315 815
22 230 696
23 110 336
24 813 751
25 221 177
26 786 668
27 652 394
28 409 146
29 208 355
30 991 157
EOF
